*******************************************************************************
* Problem type: SC-CP16
* Input file: ../instances/bp-100-20-4-10-15454.dat
* 4 objectives
* 100 variables
* 20 constraints
*******************************************************************************

min: +27 x13 +77 x14 +1 x17 +57 x19 +70 x20 +72 x21 +38 x22 +69 x25 +15 x32 +32 x39 +26 x40 +73 x54 +84 x58 +25 x64 +19 x65 +44 x66 +24 x67 +3 x68 +57 x69 +27 x71 +31 x77 +61 x78 +69 x79 +29 x80 +82 x81 +17 x82 +93 x83 +6 x84 +42 x85 +99 x86 +56 x87 +19 x88 +82 x89 +86 x90 +45 x91 +4 x92 +90 x93 +98 x94 +57 x95 +96 x96 +81 x97 +72 x98 +40 x99 +13 x100 ;
* 
* 
+1 x88 >= 1 ;
+1 x58 >= 1 ;
* 